12 0 12 2 12 0 17 3 12 1 25 1 25 2 12 0 12 2 12 0 17 2 12 0 12 2 12 0 17 2 12 0 12 2 12 0 12 2 13 0 10 1
10 0 10 2 10 0 13 3 10 1 25 1 25 2 10 0 10 2 10 0 13 2 10 0 10 2 10 0 13 2 12 0 12 2 10 0 7 2 10 0 9 1
8 3 7 3 13 4 12 0 10 0 8 1 7 1 5 3 4 0 5 0 6 0 5 0 4 1
12 0 13 2 12 0 10 3 17 5 15 0 13 0 12 0 10 0 8 3 7 0 8 0 9 0 8 0 7 1

